data;

param num_top:=3;

#nodes and edges of the physical network
param n := 10;

set E := (1,2) (1,3) (1,7) (2,4) (2,7) (3,5) (4,8) (5,6) (5,7) (6,7) (6,9) (7,8) (7,9) (8,10) (9,10) ;

#nodes and edges of the virtual networks
set Nl[1] := 3 4 2 5 ;
set Nl[2] := 9 5 7 1 ;
set Nl[3] := 2 6 4 9 ;

set El[1] := (3,4) (2,4) (2,5) (3,5) (4,5) (2,3) ;
set El[2] := (5,9) (5,7) (1,7) (1,9) (1,5) (7,9) ;
set El[3] := (2,6) (4,6) (4,9) (2,9) (6,9) (2,4) ;
